; benchmark generated from python API
(set-info :status unknown)
(declare-datatypes ((RealState 0)) (((RMk1 (rval1 Real)) (RMk2 (rval2 Real)))))
 (assert
 (forall ((|v11:0| Real) )(exists ((|v10:1_st| RealState) (val!1608 Real) )(forall ((|v9:2| Real) )(exists ((|v8:3_st| RealState) (val!1609 Real) )(forall ((|v7:4| Real) )(exists ((|v6:5_st| RealState) (val!1610 Real) )(forall ((|v5:6| Real) )(exists ((|v4:7_st| RealState) (val!1611 Real) )(forall ((|v3:8| Real) )(exists ((|v2:9_st| RealState) (val!1612 Real) )(forall ((|v1:10| Real) )(exists ((|v0:11_st| RealState) (val!1613 Real) )(let ((?x788 (- 19.0)))
 (let ((?x1768 (+ (+ (+ (rval2 |v6:5_st|) (* 6.0 (rval2 |v0:11_st|))) (* 17.0 (rval2 |v0:11_st|))) (* (- 15.0) (rval2 |v0:11_st|)))))
 (let ((?x488 (rval2 |v0:11_st|)))
 (let ((?x1702 (* 8.0 ?x488)))
 (let ((?x477 (+ (+ (+ (* (- 12.0) (rval2 |v2:9_st|)) (* 8.0 |v11:0|)) ?x1702) (* (- 8.0) |v1:10|))))
 (let ((?x1793 (+ (+ (+ (* (- 16.0) |v1:10|) (* 4.0 ?x488)) (* (- 14.0) ?x488)) (* 19.0 ?x488))))
 (let ((?x2228 (- 11.0)))
 (let ((?x974 (* 8.0 |v1:10|)))
 (let ((?x460 (- 12.0)))
 (let ((?x2223 (* ?x460 |v5:6|)))
 (let (($x2997 (<= (+ (+ (+ (* 5.0 (rval2 |v4:7_st|)) (* (- 9.0) |v3:8|)) ?x2223) ?x974) ?x2228)))
 (let ((?x1556 (+ (+ (+ (* ?x2228 |v3:8|) (* (- 13.0) |v5:6|)) (* 11.0 (rval2 |v8:3_st|))) (* 6.0 (rval2 |v6:5_st|)))))
 (let ((?x1653 (+ (+ (+ (* 11.0 |v1:10|) (* (- 2.0) |v1:10|)) (* 19.0 (rval2 |v6:5_st|))) |v1:10|)))
 (let ((?x491 (+ (+ (+ (* 2.0 (rval2 |v6:5_st|)) (* (- 1.0) |v5:6|)) (* 16.0 ?x488)) (* (- 5.0) |v9:2|))))
 (let (($x891 (and (or (<= ?x491 2.0) (<= ?x1653 12.0)) (or (<= ?x1556 ?x2228) $x2997))))
 (let (($x75 (and $x891 (and (and (<= ?x1793 2.0) (<= ?x477 5.0)) (<= ?x1768 ?x788)))))
 (let ((?x1150 (+ (+ (* 6.0 (rval2 |v4:7_st|)) (* (- 18.0) (rval2 |v6:5_st|))) (* 5.0 (rval2 |v10:1_st|)))))
 (let ((?x1295 (rval2 |v10:1_st|)))
 (let ((?x1401 (* 4.0 ?x1295)))
 (let ((?x1966 (+ (+ (+ (* 4.0 |v3:8|) (* 9.0 (rval2 |v2:9_st|))) (* 4.0 |v5:6|)) ?x1401)))
 (let ((?x882 (+ (+ (+ (* 19.0 |v1:10|) (* (- 14.0) (rval2 |v2:9_st|))) (* 2.0 |v9:2|)) (* 0.0 (rval2 |v6:5_st|)))))
 (let ((?x2347 (- 9.0)))
 (let ((?x1611 (rval2 |v8:3_st|)))
 (let ((?x994 (* ?x460 ?x1611)))
 (let ((?x351 (+ (+ (* 8.0 |v11:0|) (* (- 13.0) (rval2 |v4:7_st|))) (* 4.0 (rval2 |v4:7_st|)))))
 (let (($x1972 (and (and (<= (+ ?x351 ?x994) ?x2347) (<= ?x882 4.0)) (and (<= ?x1966 ?x788) (<= (+ ?x1150 (* (- 2.0) |v11:0|)) 13.0)))))
 (let (($x2415 (<= (+ (+ (+ (* 3.0 ?x1611) (* ?x2228 ?x1295)) (* 14.0 ?x1611)) ?x974) ?x2228)))
 (let ((?x260 (* 11.0 ?x1611)))
 (let (($x205 (<= (+ (+ (+ (* ?x460 |v9:2|) (* (- 2.0) |v1:10|)) (* ?x788 |v3:8|)) ?x260) 20.0)))
 (let ((?x913 (- 4.0)))
 (let ((?x2208 (- 5.0)))
 (let ((?x1833 (* ?x2208 |v11:0|)))
 (let ((?x279 (+ (+ (+ (* (- 3.0) (rval2 |v4:7_st|)) (* 18.0 (rval2 |v2:9_st|))) ?x1833) (* ?x913 |v1:10|))))
 (let ((?x152 (- 14.0)))
 (let ((?x196 (+ (+ (+ ?x1833 (* ?x2208 (rval2 |v4:7_st|))) (* 0.0 |v3:8|)) (* 20.0 |v7:4|))))
 (let ((?x893 (rval2 |v6:5_st|)))
 (let ((?x114 (* 11.0 ?x893)))
 (let ((?x839 (+ (+ (+ (* 7.0 |v5:6|) (* 6.0 (rval2 |v2:9_st|))) ?x114) (* (- 17.0) ?x1611))))
 (let ((?x1194 (+ (+ (+ (* 3.0 ?x488) (* ?x2228 |v7:4|)) (* 9.0 |v5:6|)) (* 14.0 ?x893))))
 (let ((?x444 (+ (+ (+ (* 12.0 |v3:8|) (* (- 7.0) ?x893)) (* 16.0 ?x1295)) (* ?x913 ?x1611))))
 (let (($x1074 (and (or (<= ?x444 2.0) (<= ?x1194 ?x2228)) (or (<= ?x839 6.0) (<= ?x196 ?x152)))))
 (let ((?x2144 (+ (+ (* (- 13.0) |v9:2|) (* (- 18.0) |v7:4|)) (* (- 3.0) |v5:6|))))
 (let ((?x315 (* 9.0 ?x893)))
 (let ((?x188 (rval2 |v4:7_st|)))
 (let ((?x736 (* 19.0 ?x188)))
 (let (($x1384 (<= (+ (+ (+ (* (- 17.0) |v9:2|) (* 15.0 (rval2 |v2:9_st|))) ?x736) ?x315) 9.0)))
 (let ((?x168 (- 3.0)))
 (let ((?x1164 (rval2 |v2:9_st|)))
 (let ((?x1304 (* 6.0 ?x1164)))
 (let (($x1772 (<= (+ (+ (+ (* ?x460 ?x488) (* 4.0 |v11:0|)) (* (- 17.0) |v3:8|)) ?x1304) ?x168)))
 (let (($x368 (<= (+ (+ (+ ?x1702 (* 5.0 |v3:8|)) (* 6.0 ?x488)) (* 15.0 ?x1611)) 16.0)))
 (let (($x487 (and (or $x368 $x1772) (and $x1384 (<= (+ ?x2144 (* (- 15.0) |v3:8|)) ?x788)))))
 (let ((?x623 (+ (+ (+ ?x488 (* 9.0 ?x188)) (* (- 18.0) ?x893)) (* (- 18.0) ?x1164))))
 (let ((?x1291 (+ (+ (+ (* 12.0 |v7:4|) (* (- 1.0) ?x488)) (* 6.0 ?x1611)) (* (- 17.0) |v11:0|))))
 (let ((?x1485 (* 12.0 ?x1295)))
 (let ((?x881 (+ (+ (+ (* (- 2.0) ?x893) (* 17.0 ?x188)) (* 13.0 ?x188)) ?x1485)))
 (let ((?x92 (- 8.0)))
 (let ((?x1747 (+ (+ (+ (* 20.0 |v1:10|) (* (- 2.0) ?x488)) (* 19.0 ?x1611)) (* ?x2347 ?x1164))))
 (let (($x943 (or (or (<= ?x1747 ?x92) (<= ?x881 7.0)) (and (<= ?x1291 ?x2347) (<= ?x623 8.0)))))
 (let ((?x611 (* 2.0 |v1:10|)))
 (let (($x482 (<= (+ (+ (+ (* ?x2208 ?x1611) (* (- 10.0) ?x1295)) (* 16.0 ?x1164)) ?x611) 6.0)))
 (let ((?x1479 (+ (+ (+ (* (- 2.0) ?x1164) (* 16.0 |v1:10|)) (* (- 13.0) ?x893)) (* 20.0 ?x893))))
 (let ((?x1585 (- 1.0)))
 (let (($x785 (<= (+ (+ (+ (* ?x2228 |v11:0|) (* 2.0 ?x488)) (* 15.0 ?x1164)) ?x994) ?x1585)))
 (let (($x2086 (and (or (or $x785 (and (<= ?x1479 16.0) $x482)) $x943) (and $x487 $x1074))))
 (let ((?x1847 (+ (+ (+ (* 15.0 ?x1295) (* 5.0 ?x893)) (* 18.0 ?x1164)) (* ?x152 ?x188))))
 (let (($x2452 (or (<= ?x1847 13.0) (and $x2086 (or (and (or (<= ?x279 ?x913) (and $x205 $x2415)) $x1972) $x75)))))
 (let (($x1423 (not (= |v0:11_st| (RMk1 val!1613)))))
 (let (($x937 (not (= |v2:9_st| (RMk1 val!1612)))))
 (let (($x1277 (not (= |v4:7_st| (RMk1 val!1611)))))
 (let (($x1151 (not (= |v6:5_st| (RMk1 val!1610)))))
 (let (($x1011 (not (= |v8:3_st| (RMk1 val!1609)))))
 (let (($x439 (not (= |v10:1_st| (RMk1 val!1608)))))
 (and $x439 $x1011 $x1151 $x1277 $x937 $x1423 $x2452)))))))))))))))))))))))))))))))))))))))))))))))))))))))))))))))))))))))))))
 )
 )
 )
 )
 )
 )
 )
 )
 )
 )
 )
 )
(check-sat)
